50
150 150
1 103 318
2 103 882
3 98 611
4 96 422
5 95 31
6 92 906
7 90 281
8 90 327
9 84 103
10 84 170
11 83 889
12 82 646
13 81 903
14 78 428
15 77 428
16 77 263
17 74 206
18 72 245
19 71 535
20 69 751
21 67 75
22 64 845
23 63 209
24 61 162
25 61 139
26 61 598
27 61 76
28 59 915
29 59 188
30 55 219
31 54 331
32 49 935
33 46 551
34 45 12
35 44 476
36 44 934
37 42 731
38 41 948
39 34 959
40 33 50
41 31 120
42 30 243
43 25 486
44 24 103
45 24 898
46 23 460
47 21 442
48 21 621
49 18 826
50 17 134
